Traveling Salesman Problem/TSP_generados/Aleatorio1620390914_8.tsp
NAME: Aleatorio1620390914_8.tsp
COMMENT: Randomly generated scenario
TYPE: TSP
DIMENSION: 8
EDGE_WEIGHT_TYPE: ATT
NODE_COORD_SECTION
1 6.79 48.51
2 20.16 42.21
3 1.05 34.52
4 34.34 30.46
5 33.17 41.72
6 36.9 25.16
7 22.37 19.02
8 13.83 26.26
