Traveling Salesman Problem/TSP_generados/Aleatorio1620390914_8.opt.tour
NAME: Aleatorio1620390914_8.opt.tour
COMMENT: Optimal solution for Aleatorio1620390914_8 (102.31439520291313)
TYPE: TOUR
DIMENSION: 8
TOUR_SECTION
1 3 8 7 6 4 5 2
-1
EOF
